
Gurobi 11.0.1 (win64) logging started Thu May 16 18:53:34 2024

Set parameter LogFile to value "output/solver_log22.txt"
Gurobi Optimizer version 11.0.1 build v11.0.1rc0 (win64 - Windows 11.0 (22631.2))

CPU model: 11th Gen Intel(R) Core(TM) i7-1165G7 @ 2.80GHz, instruction set [SSE2|AVX|AVX2|AVX512]
Thread count: 4 physical cores, 8 logical processors, using up to 8 threads

Optimize a model with 4615 rows, 1155 columns and 86080 nonzeros
Model fingerprint: 0xda4b54f6
Variable types: 568 continuous, 587 integer (587 binary)
Coefficient statistics:
  Matrix range     [4e-01, 1e+05]
  Objective range  [1e+00, 1e+02]
  Bounds range     [1e+00, 1e+00]
  RHS range        [1e-02, 1e+05]

User MIP start produced solution with objective 40329.4 (0.01s)
User MIP start produced solution with objective 40329.4 (0.01s)
Loaded user MIP start with objective 40329.4

Presolve removed 524 rows and 310 columns
Presolve time: 0.09s
Presolved: 4091 rows, 845 columns, 77814 nonzeros
Variable types: 526 continuous, 319 integer (311 binary)

Root relaxation: objective 5.120726e+04, 1246 iterations, 0.06 seconds (0.12 work units)

    Nodes    |    Current Node    |     Objective Bounds      |     Work
 Expl Unexpl |  Obj  Depth IntInf | Incumbent    BestBd   Gap | It/Node Time

     0     0 51207.2600    0   38 40329.3992 51207.2600  27.0%     -    0s
     0     0 49415.0409    0   48 40329.3992 49415.0409  22.5%     -    0s
     0     0 49214.1028    0   48 40329.3992 49214.1028  22.0%     -    0s
     0     0 48251.4523    0   47 40329.3992 48251.4523  19.6%     -    0s
     0     0 48009.2343    0   49 40329.3992 48009.2343  19.0%     -    0s
     0     0 48009.2343    0   52 40329.3992 48009.2343  19.0%     -    0s
     0     0 48009.2343    0   53 40329.3992 48009.2343  19.0%     -    0s
     0     0 47871.8449    0   61 40329.3992 47871.8449  18.7%     -    1s
     0     0 47828.0461    0   58 40329.3992 47828.0461  18.6%     -    1s
     0     0 47828.0461    0   58 40329.3992 47828.0461  18.6%     -    1s
     0     0 47468.4343    0   54 40329.3992 47468.4343  17.7%     -    1s
     0     0 47372.5104    0   60 40329.3992 47372.5104  17.5%     -    1s
     0     0 47371.3993    0   61 40329.3992 47371.3993  17.5%     -    1s
     0     0 47371.3979    0   63 40329.3992 47371.3979  17.5%     -    1s
     0     0 47332.7193    0   65 40329.3992 47332.7193  17.4%     -    2s
     0     0 47232.0661    0   71 40329.3992 47232.0661  17.1%     -    2s
     0     0 47232.0661    0   71 40329.3992 47232.0661  17.1%     -    2s
     0     0 47058.5569    0   69 40329.3992 47058.5569  16.7%     -    2s
     0     0 47058.5569    0   67 40329.3992 47058.5569  16.7%     -    3s
     0     0 47058.5569    0   65 40329.3992 47058.5569  16.7%     -    3s
     0     0 47058.5569    0   69 40329.3992 47058.5569  16.7%     -    3s
     0     0 47058.5569    0   61 40329.3992 47058.5569  16.7%     -    3s
     0     0 47058.5569    0   67 40329.3992 47058.5569  16.7%     -    3s
     0     0 47058.5569    0   68 40329.3992 47058.5569  16.7%     -    3s
     0     0 47058.5569    0   68 40329.3992 47058.5569  16.7%     -    3s
     0     0 47058.5569    0   68 40329.3992 47058.5569  16.7%     -    3s
     0     0 47058.5569    0   71 40329.3992 47058.5569  16.7%     -    3s
     0     0 47058.5569    0   70 40329.3992 47058.5569  16.7%     -    3s
     0     0 47058.5569    0   70 40329.3992 47058.5569  16.7%     -    3s
     0     0 47058.5569    0   70 40329.3992 47058.5569  16.7%     -    3s
     0     0 47058.5569    0   71 40329.3992 47058.5569  16.7%     -    4s
     0     0 47058.5569    0   71 40329.3992 47058.5569  16.7%     -    4s
     0     2 47058.5569    0   71 40329.3992 47058.5569  16.7%     -    4s
    15    20 46294.7028    5   50 40329.3992 46685.5144  15.8%   590    5s
H  288   156                    40330.057707 44958.9797  11.5%   482    8s
   374   190 40461.1634   13   36 40330.0577 44650.6270  10.7%   467   10s
H  611   352                    40338.448181 44049.4688  9.20%   388   11s
   791   390 42349.4276    8   33 40338.4482 43316.9498  7.38%   387   15s
H  799   389                    40338.634809 43316.9498  7.38%   388   15s
   923   404     cutoff   13      40338.6348 42997.4154  6.59%   394   20s
H  924   397                    40339.347042 42997.4154  6.59%   394   20s
  1242   476 40990.0462   11   31 40339.3470 42380.4871  5.06%   432   25s
H 1336   481                    40339.368053 42309.2926  4.88%   442   27s
  1631   514 41098.2835   10   31 40339.3681 42043.7453  4.23%   451   30s
  2149   548 40944.3305   13   56 40339.3681 41833.7563  3.70%   461   35s
H 2361   551                    40339.568509 41761.0340  3.52%   468   37s
  2599   552 40348.2214   12   15 40339.5685 41675.1275  3.31%   476   40s
  3190   488 40523.9634   12   35 40339.5685 41435.3967  2.72%   484   45s
  3595   430 40495.5864   14   54 40339.5685 41238.2734  2.23%   480   50s
  4143   260 40712.7911   11   28 40339.5685 40999.3481  1.64%   467   55s
H 5187   577                    40339.652161 40492.8296  0.38%   413   59s

Cutting planes:
  Gomory: 7
  Implied bound: 12
  MIR: 103
  RLT: 17
  BQP: 3

Explored 5324 nodes (2163182 simplex iterations) in 60.02 seconds (128.32 work units)
Thread count was 8 (of 8 available processors)

Solution count 8: 40339.7 40339.6 40339.4 ... 40329.4

Time limit reached
Best objective 4.033965216137e+04, best bound 4.046410875966e+04, gap 0.3085%
